Route #1: 154 62 143 144 100 108 87 46 41 33 28 50 115 207 73 29 118 45 97 98 20 31 23 124 10
Route #2: 38 11 90 114 95 2 210 18 22 206 12 37 198 75 88 101 197 92 17 49 44 21 61 16
Route #3: 7 60 106 72 39 47 40 25 52 3 4 155 187 113 64 76 63 89 177 32 129 1
Route #4: 74 6 68 42 8 145 35 163 125 152 213 83 109 162 14 19 203 185 169 24 161 30 43 122 48 112
Route #5: 179 135 183 34 77 172 70 211 56 209 174 195 190 189 188 176 193 156 149 94 117 84 104 194
Route #6: 66 201 182 180 69 78 142 184 191 171 82 13 147 150 54 36 80 164 167 178 160 67
Route #7: 9 199 58 57 196 65 157 110 204 158 146 212 127 128 59 96 121 186 205 53 133 208 202 81 79
Route #8: 173 27 71 116 165 26 148 85 138 93 15 120 5 91 151 102 153 55 200
Route #9: 119 134 111 123 99 132 105 86 170 175 131 141 130 137 51 159 192 136 140 166 168 139 126 103 181 107
cost: 77871
